p edge 45 315
e 1 8
e 1 13
e 1 14
e 1 15
e 1 22
e 1 24
e 1 25
e 1 26
e 1 28
e 1 29
e 1 33
e 1 37
e 1 38
e 1 39
e 1 40
e 2 13
e 2 19
e 2 27
e 2 29
e 2 30
e 2 32
e 2 35
e 2 40
e 2 41
e 2 42
e 2 43
e 3 5
e 3 9
e 3 11
e 3 12
e 3 19
e 3 20
e 3 21
e 3 34
e 4 7
e 4 10
e 4 15
e 4 16
e 4 17
e 4 23
e 4 24
e 4 26
e 4 30
e 4 33
e 4 35
e 4 38
e 4 39
e 5 7
e 5 10
e 5 29
e 5 30
e 5 32
e 5 33
e 5 43
e 6 9
e 6 12
e 6 14
e 6 19
e 6 20
e 6 22
e 6 23
e 6 24
e 6 26
e 6 27
e 6 29
e 6 30
e 6 33
e 6 34
e 6 35
e 6 37
e 6 42
e 6 45
e 7 8
e 7 10
e 7 13
e 7 14
e 7 17
e 7 21
e 7 22
e 7 25
e 7 27
e 7 29
e 7 30
e 7 35
e 7 41
e 7 43
e 7 45
e 8 13
e 8 16
e 8 18
e 8 19
e 8 20
e 8 26
e 8 27
e 8 28
e 8 32
e 8 33
e 8 36
e 8 43
e 9 14
e 9 16
e 9 18
e 9 23
e 9 27
e 9 29
e 9 30
e 9 34
e 9 36
e 9 41
e 10 15
e 10 21
e 10 25
e 10 26
e 10 33
e 10 35
e 10 43
e 10 44
e 11 13
e 11 15
e 11 17
e 11 18
e 11 27
e 11 28
e 11 29
e 11 31
e 11 32
e 11 37
e 11 42
e 12 13
e 12 14
e 12 15
e 12 17
e 12 22
e 12 24
e 12 29
e 12 30
e 12 32
e 12 36
e 12 38
e 12 39
e 12 40
e 12 42
e 13 15
e 13 16
e 13 17
e 13 20
e 13 25
e 13 27
e 13 29
e 13 32
e 13 41
e 13 43
e 14 20
e 14 21
e 14 26
e 14 27
e 14 30
e 14 34
e 14 39
e 14 40
e 14 42
e 15 16
e 15 18
e 15 24
e 15 27
e 15 29
e 15 41
e 15 42
e 15 43
e 16 23
e 16 25
e 16 26
e 16 28
e 16 31
e 16 37
e 16 38
e 16 42
e 17 19
e 17 28
e 17 29
e 17 33
e 17 34
e 17 36
e 17 42
e 17 44
e 17 45
e 18 22
e 18 23
e 18 26
e 18 27
e 18 31
e 18 38
e 18 42
e 18 43
e 19 21
e 19 24
e 19 26
e 19 27
e 19 32
e 19 34
e 19 42
e 20 24
e 20 25
e 20 26
e 20 30
e 20 33
e 20 35
e 20 38
e 20 39
e 21 22
e 21 25
e 21 26
e 21 27
e 21 28
e 21 29
e 21 30
e 21 31
e 21 34
e 21 35
e 21 38
e 21 40
e 21 41
e 21 42
e 21 43
e 22 27
e 22 29
e 22 32
e 22 37
e 22 40
e 22 42
e 22 44
e 22 45
e 23 24
e 23 29
e 23 30
e 23 32
e 23 36
e 23 42
e 24 29
e 24 30
e 24 31
e 24 38
e 24 41
e 24 44
e 25 28
e 25 29
e 25 30
e 25 31
e 25 32
e 25 33
e 25 34
e 25 35
e 25 37
e 25 39
e 26 27
e 26 28
e 26 29
e 26 32
e 26 38
e 26 40
e 26 41
e 27 30
e 27 40
e 27 41
e 27 42
e 27 45
e 28 30
e 28 31
e 28 32
e 28 33
e 28 36
e 29 41
e 29 43
e 30 35
e 30 37
e 30 39
e 30 40
e 30 44
e 31 37
e 32 36
e 32 37
e 32 39
e 32 42
e 32 44
e 33 35
e 33 42
e 33 43
e 33 44
e 33 45
e 34 35
e 34 36
e 34 37
e 34 40
e 34 41
e 35 36
e 35 39
e 35 40
e 35 43
e 35 44
e 36 40
e 36 41
e 36 43
e 37 39
e 37 42
e 38 40
e 38 41
e 39 40
e 39 41
e 39 42
e 40 44
e 41 44
e 41 45
e 42 44
e 42 45
e 44 45
